81	90	96	65	23	2	36	85	45	95	16	47	18	90	22	66	46	12	86	72
59	51	8	71	56	45	74	51	35	83	47	83	28	62	57	47	32	21	5	31
88	100	56	14	84	15	67	33	100	17	30	25	55	83	3	54	32	29	79	98
85	21	58	86	10	98	71	5	56	30	67	4	2	26	21	47	58	71	7	8
4	19	50	12	56	15	39	13	70	80	28	69	18	50	46	50	47	31	41	69
